peakDumbCharging = 25900; 
Machine = anon_enum(16); 
machineSpeed = [3700,3700,3700,3700,3700,3700,3700,3700,3700,3700,3700,3700,3700,3700,3700,3700]; 
machineLoad = [3700,3700,3700,3700,3700,3700,3700,3700,3700,3700,3700,3700,3700,3700,3700,3700]; 
Car = anon_enum(34); 
demandCar = [14520,4720,920,7520,4120,3320,16840,1680,8080,1160,4600,640,4280,6160,640,27560,6000,8520,2920,3720,18400,11960,3120,9280,5320,4520,9320,13720,5200,8000,27760,2440,3800,4640]; 
arrivalCar = [71,68,68,67,66,63,63,60,60,59,59,58,57,56,56,56,56,55,55,53,53,50,49,48,47,46,46,44,42,41,41,40,40,38]; 
departureCar = [77,72,74,70,70,66,72,62,64,62,63,60,59,61,58,68,59,61,57,57,60,55,51,53,51,50,52,51,44,47,54,42,42,41]; 
